CMD:
./solvers/bin/cadical --plain --no-reduce -t 1600 ./data/cnfs//intel057/intel057.67.cnf

c --- [ banner ] -------------------------------------------------------------
c 
c CaDiCaL SAT Solver
c Copyright (c) 2016-2024
c A. Biere, M. Fleury, N. Froleyks, K. Fazekas, F. Pollitt, T. Faller
c JKU Linz, University of Freiburg, TU Wien
c 
c Version 2.1.3 5296d3d2a9bf48c154ab2acb5e44625776d821bf
c g++ (Gentoo 12.3.1_p20230526 p2) 12.3.1 20230526 -Wall -Wextra -O3 -DNDEBUG
c Sat Aug 9 07:26:21 PDT 2025 Linux cedar2.int.cedar.computecanada.ca 5.14.0-362.24.2.el9_3.x86_64 x86_64
c 
c --- [ limit ] --------------------------------------------------------------
c 
c setting time limit to 1600 seconds real time (due to '-t 1600')
c 
c --- [ parsing input ] ------------------------------------------------------
c 
c reading DIMACS file from './data/cnfs//intel057/intel057.67.cnf'
c opening file to read './data/cnfs//intel057/intel057.67.cnf'
c found 'p cnf 252696 673208' header
c parsed 673208 clauses in 0.12 seconds process time
c 
c --- [ options ] ------------------------------------------------------------
c 
c   --compact=false                (different from default 'true')
c   --decompose=false              (different from default 'true')
c   --deduplicate=false            (different from default 'true')
c   --elim=false                   (different from default 'true')
c   --probe=false                  (different from default 'true')
c   --reduce=false                 (different from default 'true')
c   --subsume=false                (different from default 'true')
c   --ternary=false                (different from default 'true')
c   --transred=false               (different from default 'true')
c   --vivify=false                 (different from default 'true')
c 
c --- [ solving ] ------------------------------------------------------------
c 
c time measured in process time since initialization
c 
c  seconds   reductions  redundant  irredundant
c          MB    restarts       trail       variables
c           level   conflicts       glue          remaining
c 
c *  0.12 112  0 0   0    0    0  0% 0 670145 177229 70%
c {  0.15 113  0 0   0    0    0  0% 0 670145 177229 70%
c i  0.15 114 342 0   0    4    3 33% 2 670145 177228 70%
c i  0.23 114 755 0   4  179  155 41% 2 670145 177183 70%
c i  0.23 114 735 0   5  184  159 41% 2 670145 177176 70%
c i  0.23 114 731 0   5  185  159 41% 2 670145 177169 70%
c i  0.26 114 699 0   8  221  192 42% 2 670145 176961 70%
c i  0.26 114 692 0   8  223  192 42% 2 670145 176849 70%
c i  0.27 114 647 0  12  239  207 41% 2 670145 176827 70%
c i  0.27 114 633 0  13  244  211 41% 2 670145 176804 70%
c i  0.27 114 625 0  13  247  212 41% 2 670145 176785 70%
c i  0.27 114 622 0  13  248  212 41% 2 670145 176774 70%
c i  0.27 114 592 0  13  260  223 40% 2 670145 176773 70%
c i  0.27 114 521 0  14  295  254 39% 2 670145 176683 70%
c i  0.27 114 519 0  14  296  254 39% 2 670145 176634 70%
c i  0.27 114 473 0  17  326  281 39% 2 670145 176633 70%
c i  0.27 114 469 0  18  329  283 39% 2 670145 176626 70%
c i  0.27 114 459 0  19  336  289 38% 2 670145 176620 70%
c i  0.28 114 444 0  19  348  299 38% 2 670145 176603 70%
c i  0.28 114 424 0  21  365  315 38% 2 670145 176602 70%
c 
c  seconds    reductions  redundant  irredundant
c          MB     restarts       trail       variables
c            level   conflicts       glue          remaining
c 
c i  0.28 114 422 0  22  367  316 38% 2 670145 176601 70%
c i  0.29 114 371 0  35  425  368 37% 2 670145 176582 70%
c i  0.29 114 352 0  35  451  389 37% 2 670145 176571 70%
c i  0.30 114 314 0  43  519  448 36% 2 670145 176570 70%
c i  0.32 114 265 0  60  635  559 36% 2 670145 176569 70%
c i  0.32 114 265 0  61  636  559 36% 2 670145 176567 70%
c i  0.32 114 265 0  61  637  559 36% 2 670145 176565 70%
c i  0.33 114 232 0  83  744  659 35% 3 670145 176554 70%
c i  0.33 114 230 0  85  751  665 35% 3 670145 176531 70%
c i  0.35 115 206 0 111  865  770 35% 3 670145 176526 70%
c i  0.35 115 205 0 113  873  777 35% 3 670145 176525 70%
c i  0.35 115 204 0 115  877  780 35% 3 670145 176524 70%
c i  0.36 115 200 0 121  912  810 35% 3 670145 176523 70%
c i  0.37 115 193 0 139  975  868 35% 3 670145 176522 70%
c }  0.37 115 189 0 141 1001  891 35% 3 670145 176522 70%
c [  0.37 115  0 0 141 1001  891  0% 0 670145 176522 70%
c O  0.38 115 18 0 141 1002  892 30% 1 670145 176522 70%
c ]  0.59 115 9807 0 142 3001 2703 79% 9 670145 176522 70%
c {  0.59 115 189 0 142 3001 2703 35% 3 670145 176522 70%
c F  0.59 115 197 0 143 3003 2705 35% 3 670145 176522 70%
c 
c  seconds    reductions  redundant  irredundant
c          MB     restarts       trail       variables
c            level   conflicts       glue          remaining
c 
c i  0.60 115 197 0 143 3007 2708 35% 3 670145 176511 70%
c i  0.62 115 171 0 174 3227 2907 35% 3 670145 176492 70%
c i  0.62 115 171 0 174 3228 2907 35% 3 670145 176486 70%
c i  0.62 115 171 0 174 3229 2907 35% 3 670145 176479 70%
... skipped 40 lines ...
c W 14.02 145 75 0 5901 78022 71292 36% 5 454918 176241 70%
c 
c  seconds   reductions     redundant  irredundant
c          MB    restarts          trail       variables
c           level     conflicts        glue          remaining
c 
c # 17.16 147 72 0 7651 91023 83206 36% 5 454918 176241 70%
c i 19.33 147 71 0 8827 100897 92152 35% 5 454918 176215 70%
c B 20.31 147 70 0 9385 105025 95935 35% 5 454918 176215 70%
c i 22.49 147 69 0 10683 113684 103755 35% 5 454918 176214 70%
c i 22.78 147 68 0 10810 115386 105311 35% 5 454918 176160 70%
c i 23.22 147 69 0 11059 117008 106768 35% 5 454918 176125 70%
c W 24.16 153 69 0 11414 120027 108207 36% 5 454566 176125 70%
c } 25.83 153 68 0 12314 127001 114552 36% 5 454566 176125 70%
c [ 25.83 153 567 0 12314 127001 114552 42% 13 454566 176125 70%
c i 26.55 153 500 0 12316 132297 119462 41% 13 454566 176112 70%
c B 26.91 153 471 0 12318 136028 123009 41% 13 454566 176112 70%
c W 29.93 159 380 0 12323 153033 139050 42% 17 454526 176112 70%
c I 33.16 159 300 0 12326 171034 155989 41% 21 454526 176112 70%
c B 36.13 159 254 0 12337 190035 174132 40% 21 454526 176112 70%
c W 38.51 159 209 0 12344 210036 191079 39% 19 454526 176112 70%
c O 41.81 159 527 0 12353 231038 210702 41% 19 454526 176112 70%
c B 46.63 159 415 0 12355 253040 231517 40% 19 454526 176112 70%
c ] 47.03 159 425 0 12355 255001 233371 40% 20 454526 176112 70%
c { 47.03 159 68 0 12355 255001 233371 36% 5 454526 176112 70%
c i 52.18 163 65 0 14337 263475 241310 35% 6 454526 176105 70%
c 
c  seconds   reductions       redundant   irredundant
c          MB     restarts            trail       variables
c           level      conflicts          glue          remaining
c 
c F 59.12 167 63 0 16858 276042 252901 35% 6 454526 176105 70%
c B 71.74 174 60 0 21279 300044 275149 35% 6 454526 176105 70%
c i 78.08 177 57 0 23105 316335 290111 35% 7 454526 176096 70%
c W 82.33 205 57 0 24339 325047 293939 35% 7 454472 176096 70%
c i 83.03 205 57 0 24598 326757 295531 35% 7 454472 176095 70%
c i 87.17 205 52 0 26639 345486 312207 35% 7 454472 176087 70%
c i 87.26 205 51 0 26683 346659 313086 35% 7 454472 176079 70%
c i 87.33 205 51 0 26694 347585 313716 35% 7 454472 175802 70%
c i 87.39 205 50 0 26710 348481 314425 35% 7 454472 175525 69%
c i 87.39 205 50 0 26710 348541 314463 35% 7 454472 175523 69%
c i 87.40 205 50 0 26710 348641 314520 35% 7 454472 175488 69%
c i 87.40 205 50 0 26710 348688 314548 35% 7 454472 175213 69%
c i 87.40 205 50 0 26710 348694 314552 35% 7 454472 175167 69%
c } 87.40 205 50 0 26710 348700 314554 35% 7 454472 174754 69%
c 0 87.40 205 50 0 26710 348700 314554 35% 7 454472 174754 69%
c 
c --- [ result ] -------------------------------------------------------------
c 
s UNSATISFIABLE
c 
c --- [ run-time profiling ] -------------------------------------------------
c 
c process time taken by individual solving procedures
c (percentage relative to process time for solving)
c 
c        87.28  100.00% search
c        60.83   69.69% unstable
c        25.19   28.86% stable
c         1.24    1.42% walk
c         0.12    0.14% parse
c         0.03    0.03% lucky
c         0.00    0.00% simplify
c   =================================
c        87.28   99.86% solve
c 
c last line shows process time for solving
c (percentage relative to total process time)
c 
c --- [ statistics ] ---------------------------------------------------------
c 
c chronological:            104050        29.84 %  of conflicts
c conflicts:                348700      3995.07    per second
c decisions:               2272756     26039.06    per second
c fixed:                     77942        30.84 %  of all variables
c learned:                  337957        96.92 %  per conflict
c learned_lits:           15577046       100.00 %  learned literals
c minimized:                     0         0.00 %  learned literals
c shrunken:                2254188        14.47 %  learned literals
c minishrunken:            3291347        21.13 %  learned literals
c otfs:                       1878         0.54 %  of conflict
c propagations:          766442605         8.78 M  per second
c rephased:                     25     13948.00    interval
c restarts:                  26710        13.06    interval
c stabilizing:                   4        48.74 %  of conflicts
c subsumed:                  17848         1.77 %  of all clauses
c strengthened:               1773         0.18 %  of all clauses
c walked:                        7     49814.29    interval
c 
c seconds are measured in process time for solving
c 
c --- [ resources ] ----------------------------------------------------------
c 
c total process time since initialization:        87.40    seconds
c total real time since initialization:           87.98    seconds
c maximum resident set size of process:          234.27    MB
c 
c --- [ shutting down ] ------------------------------------------------------
c 
c exit 20
